20	5
0	5	4	1	3	5	2
1	3	7	13	15
2	3	13	7	18
3	2	13	9
4	3	10	14	8
5	3	8	15	14
6	2	19	11
7	1	10
8	2	13	16
9	1	12
10	1	9
11	1	20
12	1	16
13	2	20	19
14	2	16	13
15	0
16	1	6
17	1	15
18	1	17
19	1	21
20	1	21
21	0
0	0	0	0	0	0	0
1	2	5	2	4	4	3
2	6	2	3	2	1	3
3	5	0	0	0	5	2
4	2	2	0	1	5	3
5	9	5	2	2	1	3
6	1	4	0	4	0	0
7	1	1	2	0	5	0
8	4	2	2	2	0	5
9	5	1	2	5	3	1
10	2	3	5	3	0	3
11	5	0	0	0	4	0
12	3	4	3	0	3	1
13	5	0	1	1	2	0
14	6	4	2	0	4	4
15	5	1	0	0	1	1
16	2	0	0	4	0	3
17	3	1	4	0	4	5
18	8	3	3	2	3	5
19	4	1	5	3	5	3
20	9	5	4	1	2	4
21	0	0	0	0	0	0
9	8	6	10	11
